29316.3
14 51 26 12 32 46 70 19 53 84 85 24 80 28 56 34 62 97 71 94 58 49 52 27 59 76 91 33 35 39 5 73 98 72 54 45 13 17 74 37 55 68 11 20 2 50 9 79 36 7 47 4 21 16 67 95 88 90 15 64 23 30 38 43 41 93 63 99 89 25 69 82 65 77 0 6 48 96 10 86 81 92 57 22 83 61 8 42 75 31 60 1 44 87 3 18 29 78 40 66 
